webassembly/ejemplos_dzn/12/folder12_json_29.dzn
TERM = { '.', 's(2)', 'in_10', 'in_1', 'local_0', 'local_1', 'in_6', 'in_2', 'in_4', 'in_3', 'in_9', 'in_8', 's(1)', 's(0)', 'in_7', 'in_5', 'in_0'};
null = '.';
s = 12;
n = 16;
ndeps = 3;
max_registers_sz = 5;
NR = 2;
registers = [|'local_0', 'in_9', |'local_1', 's(2)'|];
dependencies = [|'i32.store_4', 'i32.store_5', |'i32.store_5', 'i32.store_7', |'i32.store_7', 'i32.load_10'|];
GET_ENUM = { GET1, GET2, GET3, GET4, GET5, GET6, GET7};
SET_ENUM = { SET1, SET2, SET3, SET4, SET5, SET6, SET7};
TEE_ENUM = { TEE1, TEE2, TEE3, TEE4, TEE5, TEE6, TEE7};
N = 6;
OP = { 'i32.add_0', 'i32.store_4', 'i32.store_5', 'i32.sub_0', 'i32.store_7', 'i32.load_10' };
in_ops = [2, 2, 2, 2, 2, 1 ];
out_ops = [1, 0, 0, 1, 0, 1 ];
in1 = ['in_3', 's(1)', 'in_6', 'in_0', 's(0)', 'in_10' ];
in2 = ['in_4', 'in_5', 'in_7', 'in_1', 'in_8', '.' ];
in3 = ['.', '.', '.', '.', '.', '.' ];
out1 = ['s(1)', '.', '.', 's(0)', '.', 's(2)' ];
out2 = ['.', '.', '.', '.', '.', '.' ];
out3 = ['.', '.', '.', '.', '.', '.' ];
comm = [true, false, false, false, false, false ];
gas = [1, 1, 1, 1, 1, 1 ];
sz = [1, 1, 1, 1, 1, 1 ];
stor = [false, true, true, false, true, false ];
lb = [ 1, 1, 1, 1, 1, 1 ];
ub = [ 12, 12, 12, 12, 12, 12 ];
startstack = [ 'in_0', 'in_1', 'in_2', 'in_3', 'in_4', 'in_5', 'in_6', 'in_7', 'in_8', 'in_9', 'in_10', null, null, null, null, null ];
endstack = [ 's(2)', null, null, null, null, null, null, null, null, null, null, null, null, null, null, null ];
